<number of tasks>
250

<cycle time>
1000

<order strength>
0.596


<task times>
1 287
2 143
3 278
4 446
5 29
6 157
7 77
8 355
9 98
10 112
11 227
12 206
13 122
14 56
15 115
16 458
17 294
18 219
19 256
20 245
21 171
22 202
23 278
24 24
25 173
26 116
27 138
28 302
29 187
30 123
31 512
32 78
33 506
34 168
35 441
36 146
37 199
38 154
39 432
40 183
41 408
42 181
43 455
44 58
45 358
46 227
47 468
48 98
49 143
50 127
51 66
52 437
53 59
54 54
55 93
56 249
57 219
58 140
59 418
60 34
61 244
62 111
63 231
64 102
65 327
66 202
67 93
68 92
69 504
70 281
71 496
72 104
73 66
74 478
75 222
76 70
77 25
78 381
79 183
80 132
81 560
82 195
83 105
84 260
85 59
86 475
87 159
88 40
89 161
90 129
91 144
92 532
93 463
94 54
95 198
96 452
97 22
98 277
99 364
100 40
101 469
102 216
103 513
104 29
105 221
106 184
107 236
108 512
109 375
110 64
111 495
112 190
113 212
114 40
115 50
116 40
117 48
118 35
119 511
120 187
121 243
122 385
123 369
124 108
125 495
126 559
127 179
128 227
129 94
130 151
131 479
132 337
133 117
134 175
135 101
136 91
137 179
138 131
139 205
140 559
141 204
142 221
143 194
144 527
145 289
146 53
147 182
148 52
149 230
150 434
151 51
152 95
153 232
154 43
155 94
156 495
157 159
158 176
159 525
160 399
161 89
162 45
163 129
164 231
165 59
166 368
167 461
168 85
169 69
170 227
171 166
172 480
173 175
174 162
175 185
176 261
177 346
178 427
179 219
180 269
181 22
182 25
183 136
184 211
185 61
186 337
187 227
188 99
189 93
190 83
191 315
192 137
193 263
194 56
195 523
196 320
197 473
198 252
199 58
200 397
201 134
202 271
203 74
204 78
205 240
206 492
207 175
208 220
209 464
210 80
211 208
212 98
213 472
214 305
215 207
216 121
217 53
218 163
219 51
220 26
221 86
222 146
223 90
224 32
225 178
226 194
227 512
228 162
229 118
230 210
231 150
232 316
233 126
234 199
235 59
236 102
237 21
238 82
239 303
240 118
241 214
242 138
243 254
244 278
245 131
246 180
247 253
248 274
249 182
250 77

<precedence relations>
1,99
2,99
3,99
4,93
5,130
6,170
7,147
8,15
8,16
8,19
8,62
9,10
9,11
9,12
9,13
9,14
9,17
10,99
11,169
12,93
13,93
14,114
15,114
16,147
17,18
17,19
17,20
17,21
17,22
17,23
17,24
17,25
18,62
19,93
20,221
21,114
22,147
23,147
24,26
24,27
24,29
24,30
24,32
24,33
24,35
24,36
25,27
25,28
25,31
25,33
25,34
25,44
25,49
26,99
27,62
28,62
29,93
30,170
31,170
32,221
33,204
34,147
35,37
35,40
35,41
35,42
35,43
35,45
35,51
35,59
35,60
35,80
35,81
36,38
36,39
36,43
36,44
36,46
36,47
37,99
38,99
39,169
40,62
41,93
42,114
43,114
44,204
45,147
46,48
46,51
46,52
46,53
46,54
46,55
46,57
47,49
47,50
47,56
47,57
48,99
49,62
50,93
51,93
52,93
53,130
54,170
55,114
56,114
57,58
57,59
57,60
57,61
57,62
57,63
57,64
57,65
57,66
57,67
58,99
59,169
60,169
61,203
62,68
62,70
62,71
62,72
62,73
62,74
62,75
62,76
62,77
62,78
62,79
63,93
64,114
65,204
66,96
66,160
67,69
67,80
67,81
68,99
69,99
70,83
70,84
70,85
70,91
71,82
71,114
71,127
71,151
71,160
72,82
72,95
72,96
72,97
73,82
73,90
73,132
74,86
74,87
75,82
75,83
75,90
75,91
76,82
76,88
76,143
76,160
77,82
77,86
77,88
77,89
77,99
77,115
78,82
78,133
78,165
78,166
78,167
79,187
80,170
81,82
81,83
81,84
81,85
81,86
82,169
83,169
84,203
85,93
86,130
87,114
88,114
89,114
90,147
91,92
91,93
91,94
91,95
91,96
91,97
91,98
92,99
93,100
93,101
93,102
93,103
93,104
93,105
93,106
93,107
93,108
93,109
93,110
93,111
93,112
93,113
93,115
93,130
94,130
95,114
96,114
97,99
98,115
99,116
99,117
99,118
99,119
99,120
99,127
100,127
100,149
101,127
101,131
101,135
101,140
102,127
102,149
102,161
103,127
103,134
103,152
104,127
105,127
105,129
105,133
105,147
105,160
106,127
106,132
106,134
106,165
107,127
107,129
107,135
107,191
108,127
108,132
109,167
109,170
109,223
110,134
110,165
110,167
110,183
111,127
111,142
111,167
112,127
112,148
112,166
112,171
113,151
113,165
113,166
114,121
114,122
114,123
114,124
114,125
114,126
115,144
115,146
115,147
116,130
117,130
117,149
118,128
118,129
118,130
118,131
118,132
118,133
119,128
119,129
119,130
119,133
120,128
120,130
120,133
121,220
121,233
122,128
122,131
122,132
122,149
122,167
123,152
123,153
124,133
125,132
125,135
125,145
125,162
125,184
126,128
126,129
126,131
126,147
127,128
127,144
127,162
127,206
127,223
128,241
129,187
130,134
130,136
130,137
130,138
130,139
130,140
130,141
131,170
132,221
133,135
133,142
133,164
134,187
135,187
136,170
137,147
138,144
138,147
139,143
139,165
140,146
140,148
141,143
141,145
141,171
141,172
142,146
142,149
142,162
142,163
143,169
144,170
145,170
146,204
147,153
147,154
147,155
147,156
147,157
147,158
147,159
148,150
148,151
148,160
148,165
149,150
149,152
149,168
150,241
151,241
152,169
153,221
154,163
154,164
154,165
154,166
154,169
155,188
156,161
156,164
156,167
156,168
157,161
157,162
157,163
158,161
158,162
158,166
158,172
159,161
159,162
159,172
160,161
160,164
160,172
161,169
162,203
163,187
164,187
165,170
166,170
167,221
168,169
168,170
168,171
168,172
169,173
169,174
169,175
169,176
169,177
169,178
169,183
170,179
170,180
170,181
170,182
170,186
171,183
172,185
172,206
173,190
174,184
174,189
175,184
175,186
176,240
177,188
177,190
178,186
178,201
179,205
180,205
181,202
181,203
182,205
182,233
183,185
183,200
184,187
185,190
186,188
186,189
186,205
187,192
187,193
187,194
187,195
187,196
187,197
187,198
187,199
187,200
187,201
187,202
188,221
189,221
190,191
190,220
191,203
192,203
193,206
193,222
193,236
194,206
194,235
194,238
195,205
195,223
195,233
196,205
196,206
197,220
197,222
198,203
199,205
200,204
201,236
202,232
202,240
203,207
203,208
203,209
203,210
203,211
204,212
204,213
204,214
204,215
204,216
204,217
204,218
204,219
204,222
205,220
207,221
208,233
208,234
210,222
212,223
212,234
214,241
215,223
215,234
216,241
217,223
217,238
218,221
219,241
221,224
221,225
221,226
221,227
221,228
221,229
221,230
221,231
223,232
225,233
226,233
228,250
229,234
230,238
233,235
234,236
235,237
235,240
236,238
236,239
237,241
238,241
239,242
241,243
241,244
241,245
241,246
241,247
241,248
241,249
248,250

<end>
